tsp_instances/TSP20/instance30.tsp
NODE_COORD_SECTION
0 139 170
1 41 192
2 185 181
3 80 121
4 10 133
5 171 40
6 200 94
7 183 65
8 114 48
9 123 105
10 141 135
11 115 168
12 111 177
13 37 162
14 128 45
15 174 187
16 187 193
17 49 34
18 50 133
19 108 94
