tsp_instances/TSP20/instance30.opt.tour
TOUR_SECTION
1
13
12
11
10
20
4
19
14
2
5
18
9
15
6
8
7
3
17
16
-1